p cnf 9 44 
c Factors encoded in variables 1-6 and 7-9
c Target number: 265
c Factors: 53 x 5
-5 4 -3 9 -8 0
-6 -5 -4 9 0
-5 -8 0
5 -4 -3 -9 0
5 -4 3 -8 0
6 -4 -2 -9 -8 0
-5 -3 -8 0
8 9 0
5 3 -2 -8 0
-5 -4 -3 -2 8 0
6 -5 0
-5 3 2 9 -8 0
4 -3 -2 0
-4 -3 -2 9 8 0
-4 9 -8 0
1 0
-5 -4 -3 -2 -8 0
-5 -4 -3 -2 -9 0
-6 9 0
2 3 4 5 6 0
6 4 3 0
-5 -4 -9 0
7 0
-4 -2 9 0
-5 -4 8 0
-6 4 3 -9 8 0
-6 -5 -4 3 -8 0
4 9 8 0
-6 5 -9 8 0
5 2 -9 0
-6 5 -4 -9 8 0
-5 4 -8 0
-5 3 0
6 5 0
-5 -4 -3 -2 -9 -8 0
3 -9 0
-2 8 0
-6 5 4 9 -8 0
-6 -2 9 0
-5 -3 2 -9 -8 0
-3 9 0
2 -8 0
6 -4 -3 -9 -8 0
5 4 9 0
